benchmarks_vrp/CMT4/min_c/CMT4_2.vrp
NAME: CMT4_2
TYPE: CVRP
COMMENT: 1028.42 - Cluster Nr.2
DIMENSION: 7
CAPACITY: 200
EDGE_WEIGHT_TYPE: EUC_2D
NODE_COORD_TYPE: TWOD_COORDS
NODE_COORD_SECTION: 
2 62 63
3 63 65
4 57 68
6 62 77
1 63 69
7 35 35
5 49 73
DEPOT_SECTION: 
7
-1
DEMAND_SECTION: 
4 15
2 17
7 0
3 8
6 20
1 6
5 25
EOF
