benchmarks_vrp/CMT4/min_c/CMT4_2.tour
NAME: CMT4_2 solution
TYPE: TOUR
TOUR_SECTION:
7 2 3 1 6 4 5 -1
-1
EOF